
Gurobi 9.5.2 (win64) logging started Mon Mar 27 20:26:12 2023

Set parameter LogFile to value "2023-03-27_20hr-25min-09sec/Nodes20_Arcs25_LocNodes15/Formulation-2Instance-3.log"
Set parameter TimeLimit to value 600
Set parameter IntFeasTol to value 1e-09
Set parameter DualReductions to value 0
Set parameter NonConvex to value 2
Gurobi Optimizer version 9.5.2 build v9.5.2rc0 (win64)
Thread count: 4 physical cores, 8 logical processors, using up to 8 threads
Optimize a model with 81 rows, 140 columns and 290 nonzeros
Model fingerprint: 0xba7442c9
Model has 45 quadratic objective terms
Model has 45 SOS constraints
Variable types: 125 continuous, 15 integer (15 binary)
Coefficient statistics:
  Matrix range     [1e-01, 2e+02]
  Objective range  [4e-02, 1e+03]
  QObjective range [2e-01, 8e+00]
  Bounds range     [1e+00, 1e+00]
  RHS range        [4e-02, 1e+03]
Presolve removed 36 rows and 47 columns
Presolve time: 0.01s
Presolved: 45 rows, 93 columns, 153 nonzeros
Presolved model has 22 SOS constraint(s)
Presolved model has 22 quadratic objective terms
Variable types: 78 continuous, 15 integer (15 binary)

Root relaxation: objective 4.341714e+05, 113 iterations, 0.00 seconds (0.00 work units)

    Nodes    |    Current Node    |     Objective Bounds      |     Work
 Expl Unexpl |  Obj  Depth IntInf | Incumbent    BestBd   Gap | It/Node Time

     0     0 434171.378    0    4          - 434171.378      -     -    0s
H    0     0                    433816.72750 434171.378  0.08%     -    0s
     0     0 433978.078    0    3 433816.728 433978.078  0.04%     -    0s
H    0     0                    433847.72295 433978.078  0.03%     -    0s
     0     0 433978.078    0    4 433847.723 433978.078  0.03%     -    0s
H    0     0                    433849.50076 433978.078  0.03%     -    0s

Cutting planes:
  Cover: 2
  Implied bound: 3

Explored 1 nodes (193 simplex iterations) in 0.07 seconds (0.00 work units)
Thread count was 8 (of 8 available processors)

Solution count 2: 433850 433817 

Optimal solution found (tolerance 1.00e-04)
Best objective 4.338495007603e+05, best bound 4.338524006858e+05, gap 0.0007%

User-callback calls 286, time in user-callback 0.00 sec
